local_stuff/sygus_stuff/sygus_inv_oai/repo/z3/99.out
STDOUT:
sat
(
  (define-fun inv ((x!0 Int) (x!1 Int) (x!2 Int)) Bool
    (and (<= (+ x!0 (* (- 1) x!1) (* (- 1) x!2)) 0)
         (<= (+ x!1 x!2 (* (- 1) x!0)) 0)
         (<= (+ x!2 (* (- 1) x!0)) 0)))
)


STDERR:
